Results/Experiment 1 Results/Existing Benchmark/RES_100/i-100-100-11.txt
solutions: 2 nodes: 5  modelTime: 123  solveTime: 31  totalTime: 172  modelSize: 8381  readTime: 18 matchingSize: 50
