Results/Experiment 2 Results/Existing Benchmark/i-100-100-11.lp
clingo version 5.4.0
Reading from tempSRTISolver.lp ...
Solving...
Answer: 1
matched(28,2) matched(44,3) matched(91,4) matched(92,5) matched(7,6) matched(6,7) matched(42,8) matched(41,9) matched(34,10) matched(36,11) matched(72,12) matched(20,13) matched(48,14) matched(99,15) matched(87,16) matched(96,17) matched(79,18) matched(1,19) matched(13,20) matched(76,21) matched(82,22) matched(68,23) matched(38,24) matched(31,25) matched(51,26) matched(78,27) matched(2,28) matched(98,29) matched(55,30) matched(25,31) matched(39,32) matched(93,33) matched(10,34) matched(88,35) matched(11,36) matched(83,37) matched(24,38) matched(32,39) matched(80,40) matched(9,41) matched(8,42) matched(89,43) matched(3,44) matched(84,45) matched(62,46) matched(61,47) matched(14,48) matched(71,49) matched(65,50) matched(26,51) matched(81,52) matched(100,53) matched(70,54) matched(30,55) matched(90,56) matched(86,57) matched(73,58) matched(66,59) matched(64,60) matched(47,61) matched(46,62) matched(77,63) matched(60,64) matched(50,65) matched(59,66) matched(95,67) matched(23,68) matched(75,69) matched(54,70) matched(49,71) matched(12,72) matched(58,73) matched(85,74) matched(69,75) matched(21,76) matched(63,77) matched(27,78) matched(18,79) matched(40,80) matched(52,81) matched(22,82) matched(37,83) matched(45,84) matched(74,85) matched(57,86) matched(16,87) matched(35,88) matched(43,89) matched(56,90) matched(4,91) matched(5,92) matched(33,93) matched(97,94) matched(67,95) matched(17,96) matched(94,97) matched(29,98) matched(15,99) matched(53,100) matched(19,1)
Optimization: 1053
Answer: 2
matched(28,2) matched(44,3) matched(91,4) matched(92,5) matched(7,6) matched(6,7) matched(42,8) matched(41,9) matched(34,10) matched(36,11) matched(72,12) matched(20,13) matched(23,14) matched(99,15) matched(87,16) matched(96,17) matched(79,18) matched(1,19) matched(13,20) matched(76,21) matched(82,22) matched(14,23) matched(38,24) matched(31,25) matched(51,26) matched(78,27) matched(2,28) matched(98,29) matched(55,30) matched(25,31) matched(39,32) matched(93,33) matched(10,34) matched(88,35) matched(11,36) matched(83,37) matched(24,38) matched(32,39) matched(80,40) matched(9,41) matched(8,42) matched(89,43) matched(3,44) matched(84,45) matched(62,46) matched(61,47) matched(68,48) matched(71,49) matched(65,50) matched(26,51) matched(81,52) matched(100,53) matched(70,54) matched(30,55) matched(90,56) matched(86,57) matched(73,58) matched(66,59) matched(64,60) matched(47,61) matched(46,62) matched(77,63) matched(60,64) matched(50,65) matched(59,66) matched(95,67) matched(48,68) matched(75,69) matched(54,70) matched(49,71) matched(12,72) matched(58,73) matched(85,74) matched(69,75) matched(21,76) matched(63,77) matched(27,78) matched(18,79) matched(40,80) matched(52,81) matched(22,82) matched(37,83) matched(45,84) matched(74,85) matched(57,86) matched(16,87) matched(35,88) matched(43,89) matched(56,90) matched(4,91) matched(5,92) matched(33,93) matched(97,94) matched(67,95) matched(17,96) matched(94,97) matched(29,98) matched(15,99) matched(53,100) matched(19,1)
Optimization: 1021
OPTIMUM FOUND

Models       : 2
  Optimum    : yes
Optimization : 1021
Calls        : 1
Time         : 94.770s (Solving: 15.18s 1st Model: 3.76s Unsat: 11.42s)
CPU Time     : 94.762s
